set I := a b c d e f g h i j;
set K := 1 2 3 4 5 6 7 8 9 10;


param h:
	  a b c d e f g h i j :=
	a 0 1 0 0 1 0 0 0 0 1
	b 1 0 0 1 0 0 1 0 0 0
	c 0 0 0 0 0 0 0 1 0 1	
	d 0 1 0 0 0 1 0 0 0 0
	e 1 0 0 0 0 0 0 0 1 0
	f 0 0 0 1 0 0 0 0 0 1
	g 0 1 0 0 0 0 0 0 0 0
	h 0 0 1 0 0 0 0 0 1 0
	i 0 0 0 0 1 0 0 1 0 1
	j 1 0 1 0 0 1 0 0 1 0;
	
param M := 20;

